benchmarks/bfuzz0/43102715593271303130424519664085573.smt2
(set-logic QF_FP)
(declare-const x0 (_ FloatingPoint 8 24))
(declare-const x1 (_ FloatingPoint 8 24))
(declare-const x2 (_ FloatingPoint 8 24))
(declare-const x3 (_ FloatingPoint 8 24))
(declare-const x4 (_ FloatingPoint 8 24))
(declare-const x5 (_ FloatingPoint 8 24))
(declare-const x6 (_ FloatingPoint 8 24))
(declare-const x7 (_ FloatingPoint 8 24))
(declare-const x8 (_ FloatingPoint 8 24))
(declare-const x9 (_ FloatingPoint 8 24))
(declare-const x10 (_ FloatingPoint 8 24))
(declare-const x11 (_ FloatingPoint 8 24))
(declare-const x12 (_ FloatingPoint 8 24))
(declare-const x13 (_ FloatingPoint 8 24))
(declare-const x14 (_ FloatingPoint 8 24))
(declare-const x15 (_ FloatingPoint 8 24))
(declare-const x16 (_ FloatingPoint 8 24))
(declare-const x17 (_ FloatingPoint 8 24))
(declare-const x18 (_ FloatingPoint 8 24))
(declare-const x19 (_ FloatingPoint 8 24))
(declare-const x20 (_ FloatingPoint 8 24))
(declare-const x21 (_ FloatingPoint 8 24))
(declare-const x22 (_ FloatingPoint 8 24))
(declare-const x23 (_ FloatingPoint 8 24))
(assert (fp.gt (fp.add RNE x1 x22) (fp.add RNE x9 x10)))
(assert (fp.eq (fp.sub RNE x6 x15) (fp.div RNE x16 x14)))
(assert (fp.leq (fp.div RNE x1 x2) (fp.mul RNE x11 x7)))
(assert (fp.gt (fp.mul RNE x20 x14) (fp.div RNE x2 x1)))
(assert (fp.gt (fp.add RNE x8 x9) (fp.neg x21)))
(assert (fp.eq (fp.mul RNE x6 x3) (fp.sub RNE x2 x4)))
(assert (fp.geq (fp.div RNE x3 x9) (fp.neg x10)))
(assert (fp.leq (fp.mul RNE x6 x0) (fp.div RNE x23 x3)))
(assert (fp.lt (fp.sub RNE x15 x10) (fp.sub RNE x4 x23)))
(assert (fp.lt (fp.sub RNE x21 x22) (fp.sub RNE x14 x4)))
(assert (fp.eq (fp.add RNE x16 x17) (fp.sub RNE x14 x3)))
(assert (fp.gt (fp.neg x12) (fp.neg x12)))
(assert (fp.geq (fp.sub RNE x14 x12) (fp.sub RNE x19 x5)))
(assert (fp.geq (fp.div RNE x5 x0) (fp.add RNE x19 x14)))
(assert (fp.geq (fp.neg x17) (fp.div RNE x0 x7)))
(assert (fp.eq (fp.neg x15) (fp.mul RNE x11 x5)))
(assert (fp.gt (fp.neg x9) (fp.mul RNE x11 x15)))
(assert (fp.lt (fp.add RNE x3 x2) (fp.add RNE x6 x19)))
(check-sat)
