db/data/43102715593271303130424519664085573.z3.out
unsat
-------------------
.101602800
